TP4/multiDKnapsack.lp
\ENCODING=ISO-8859-1
\Problem name: TP4

Maximize
 obj1: 12 x_j0 + 8 x_j1 + 2 x_j2 + 5 x_j3
Subject To
 capacity_1: 5 x_j0 + 4 x_j1 + x_j2 + 3 x_j3 <= 11
Bounds
 0 <= x_j0 <= 1
 0 <= x_j1 <= 1
 0 <= x_j2 <= 1
 0 <= x_j3 <= 1
Binaries
 x_j0  x_j1  x_j2  x_j3 
End
