TP4/multiDKnapsack.sol
<?xml version = "1.0" encoding="UTF-8" standalone="yes"?>
<CPLEXSolution version="1.2">
 <header
   problemName="TP4"
   solutionName="incumbent"
   solutionIndex="-1"
   objectiveValue="6"
   solutionTypeValue="3"
   solutionTypeString="primal"
   solutionStatusValue="101"
   solutionStatusString="integer optimal solution"
   solutionMethodString="mip"
   primalFeasible="1"
   dualFeasible="1"
   MIPNodes="0"
   MIPIterations="0"
   writeLevel="1"/>
 <quality
   epInt="1.0000000000000001e-05"
   epRHS="9.9999999999999995e-07"
   maxIntInfeas="0"
   maxPrimalInfeas="0"
   maxX="1"
   maxSlack="72"/>
 <linearConstraints>
  <constraint name="capacity_1" index="0" slack="72"/>
  <constraint name="capacity_2" index="1" slack="0"/>
 </linearConstraints>
 <variables>
  <variable name="x_j0" index="0" value="0"/>
  <variable name="x_j1" index="1" value="0"/>
  <variable name="x_j2" index="2" value="0"/>
  <variable name="x_j3" index="3" value="0"/>
  <variable name="x_j4" index="4" value="0"/>
  <variable name="x_j5" index="5" value="0"/>
  <variable name="x_j6" index="6" value="0"/>
  <variable name="x_j7" index="7" value="0"/>
  <variable name="x_j8" index="8" value="0"/>
  <variable name="x_j9" index="9" value="1"/>
  <variable name="x_j10" index="10" value="0"/>
  <variable name="x_j11" index="11" value="0"/>
  <variable name="x_j12" index="12" value="0"/>
  <variable name="x_j13" index="13" value="0"/>
  <variable name="x_j14" index="14" value="0"/>
  <variable name="x_j15" index="15" value="0"/>
  <variable name="x_j16" index="16" value="0"/>
  <variable name="x_j17" index="17" value="0"/>
 </variables>
</CPLEXSolution>
